
  22   10
  10   10   10   10   10   10   10   10   10   10

   0   0   0   0   0   0   0   0   0   0   0   2 2 10 
   4   0   0   0   0   0   0   0   0  10   0   1 3 
   5  10   0   0   0   0   0   0   0   0   0   1 4 
   6   0  10   0   0   0   0   0   0   0   0   1 5 
   1   0   0  10   0   0   0   0   0   0   0   1 6 
   1   0   0   0  10   0   0   0   0   0   0   1 7 
   2   0   0   0   0  10   0   0   0   0   0   1 8 
   4  10   0   0   0   0   0   0   0   0   0   1 9 
   5   0  10   0   0   0   0   0   0   0   0   1 11 
   1   0   0   0   0   0   0  10   0   0   0   1 11 
   5   0   0   0   0   0   0  10   0   0   0   1 12 
  10   0   0   0   0   0   0   0   0  10   0   1 13 
   6   0   0   0  10   0   0   0   0   0   0   1 14 
   1   0   0   0   0  10   0   0   0   0   0   1 15 
   8   0   0  10   0   0   0   0   0   0   0   1 16 
   3   0   0   0   0  10   0   0   0   0   0   2 21 17 
   6   0   0   0   0   0   0   0   0  10   0   1 18 
   2   0   0  10   0   0   0   0   0   0   0   1 19 
   3   0   0   0   0   0   0   0   0  10   0   1 20 
   7   0  10   0   0   0   0   0   0   0   0   1 22
  10   0   0   0  10   0   0   0   0   0   0   1 22
   0   0   0   0   0   0   0   0   0   0   0   0 
